Route #1: 25 4 18
Route #2: 68 90 84 66
Route #3: 6 37 43 45 2 7
Route #4: 1 70 22
Route #5: 42 10 39
Route #6: 52 83 81
Route #7: 92 16 69
Route #8: 23 100 8
Route #9: 17 80
Route #10: 88 67 60 34
Route #11: 38 47 48 26 56
Route #12: 30 85 11 19 50
Route #13: 65 78 49 36 29 87
Route #14: 71 62 99 98 89
Route #15: 58 12 5
Route #16: 57 72 82 28 63
Route #17: 54 9 86
Route #18: 32 31 24 46
Route #19: 95 93 75
Route #20: 21 27 61
Route #21: 73 53 33 79
Route #22: 76 55 74 13
Route #23: 94 96 59 40
Route #24: 44 14 77 3 64
Route #25: 15 41 20 35
Route #26: 51 91 97
Cost: 27949
